(set-logic ALL)
(declare-fun var0 () String)
(assert (str.in_re var0 (re.++ (re.+ (re.* (str.to_re "0"))) (re.++ (re.union (re.* (str.to_re "11")) (re.+ (str.to_re "222"))) (re.++ (re.* (re.* (str.to_re "3"))) (re.++ (re.union (re.* (str.to_re "4")) (re.* (str.to_re "555"))) (re.++ (re.+ (re.union (str.to_re "666") (str.to_re "777"))) (re.++ (re.+ (re.* (str.to_re "8"))) (re.++ (re.union (re.+ (str.to_re "999")) (re.+ (str.to_re "aa"))) (re.++ (re.union (re.* (str.to_re "b")) (re.* (str.to_re "ccc"))) (re.++ (re.+ (re.+ (str.to_re "dd"))) (re.union (re.union (str.to_re "ee") (str.to_re "f")) (re.+ (str.to_re "g"))))))))))))))
(assert (<= 126 (str.len var0)))
(check-sat)